c CNF file generated from BLIF2CNF script.
c Original BLIF file was blif/t3.blif
p cnf 168 1934
-1 -14 0
-2 -14 0
-3 -14 0
-4 -14 0
-5 -14 0
14 1 2 3 4 5  0
-14 13 0
1 -15 0
-3 -15 0
5 -15 0
-8 -15 0
-9 -15 0
15 -1 3 -5 8 9  0
-15 13 0
-1 -16 0
-2 -16 0
-3 -16 0
-4 -16 0
5 -16 0
6 -16 0
-7 -16 0
8 -16 0
9 -16 0
10 -16 0
11 -16 0
12 -16 0
16 1 2 3 4 -5 -6 7 -8 -9 -10 -11 -12  0
-16 13 0
-1 -17 0
-2 -17 0
-3 -17 0
-4 -17 0
5 -17 0
-6 -17 0
-7 -17 0
8 -17 0
9 -17 0
10 -17 0
11 -17 0
12 -17 0
17 1 2 3 4 -5 6 7 -8 -9 -10 -11 -12  0
-17 13 0
-1 -18 0
-2 -18 0
-3 -18 0
-4 -18 0
5 -18 0
6 -18 0
-7 -18 0
-8 -18 0
9 -18 0
10 -18 0
11 -18 0
12 -18 0
18 1 2 3 4 -5 -6 7 8 -9 -10 -11 -12  0
-18 13 0
-1 -19 0
-2 -19 0
-3 -19 0
-4 -19 0
5 -19 0
-6 -19 0
-7 -19 0
-8 -19 0
9 -19 0
10 -19 0
11 -19 0
12 -19 0
19 1 2 3 4 -5 6 7 8 -9 -10 -11 -12  0
-19 13 0
-1 -20 0
-2 -20 0
-3 -20 0
-4 -20 0
5 -20 0
6 -20 0
7 -20 0
8 -20 0
-9 -20 0
10 -20 0
11 -20 0
12 -20 0
20 1 2 3 4 -5 -6 -7 -8 9 -10 -11 -12  0
-20 13 0
-1 -21 0
-2 -21 0
-3 -21 0
-4 -21 0
5 -21 0
-6 -21 0
7 -21 0
8 -21 0
-9 -21 0
10 -21 0
11 -21 0
12 -21 0
21 1 2 3 4 -5 6 -7 -8 9 -10 -11 -12  0
-21 13 0
-1 -22 0
-2 -22 0
-3 -22 0
-4 -22 0
5 -22 0
6 -22 0
-7 -22 0
8 -22 0
-9 -22 0
10 -22 0
11 -22 0
12 -22 0
22 1 2 3 4 -5 -6 7 -8 9 -10 -11 -12  0
-22 13 0
-1 -23 0
-2 -23 0
-3 -23 0
-4 -23 0
5 -23 0
-6 -23 0
-7 -23 0
8 -23 0
-9 -23 0
10 -23 0
11 -23 0
12 -23 0
23 1 2 3 4 -5 6 7 -8 9 -10 -11 -12  0
-23 13 0
-1 -24 0
-2 -24 0
-3 -24 0
-4 -24 0
5 -24 0
6 -24 0
7 -24 0
-8 -24 0
-9 -24 0
10 -24 0
11 -24 0
12 -24 0
24 1 2 3 4 -5 -6 -7 8 9 -10 -11 -12  0
-24 13 0
-1 -25 0
-2 -25 0
-3 -25 0
-4 -25 0
5 -25 0
6 -25 0
-7 -25 0
-8 -25 0
-9 -25 0
10 -25 0
11 -25 0
12 -25 0
25 1 2 3 4 -5 -6 7 8 9 -10 -11 -12  0
-25 13 0
-1 -26 0
-2 -26 0
-3 -26 0
-4 -26 0
5 -26 0
-6 -26 0
-7 -26 0
-8 -26 0
-9 -26 0
10 -26 0
11 -26 0
12 -26 0
26 1 2 3 4 -5 6 7 8 9 -10 -11 -12  0
-26 13 0
-1 -27 0
-2 -27 0
-3 -27 0
-4 -27 0
5 -27 0
6 -27 0
-7 -27 0
8 -27 0
9 -27 0
-10 -27 0
11 -27 0
12 -27 0
27 1 2 3 4 -5 -6 7 -8 -9 10 -11 -12  0
-27 13 0
-1 -28 0
-2 -28 0
-3 -28 0
-4 -28 0
5 -28 0
-6 -28 0
-7 -28 0
8 -28 0
9 -28 0
-10 -28 0
11 -28 0
12 -28 0
28 1 2 3 4 -5 6 7 -8 -9 10 -11 -12  0
-28 13 0
-1 -29 0
-2 -29 0
-3 -29 0
-4 -29 0
5 -29 0
6 -29 0
-7 -29 0
-8 -29 0
9 -29 0
-10 -29 0
11 -29 0
12 -29 0
29 1 2 3 4 -5 -6 7 8 -9 10 -11 -12  0
-29 13 0
-1 -30 0
-2 -30 0
-3 -30 0
-4 -30 0
5 -30 0
-6 -30 0
-7 -30 0
-8 -30 0
9 -30 0
-10 -30 0
11 -30 0
12 -30 0
30 1 2 3 4 -5 6 7 8 -9 10 -11 -12  0
-30 13 0
-1 -31 0
-2 -31 0
-3 -31 0
-4 -31 0
5 -31 0
6 -31 0
7 -31 0
8 -31 0
-9 -31 0
-10 -31 0
11 -31 0
12 -31 0
31 1 2 3 4 -5 -6 -7 -8 9 10 -11 -12  0
-31 13 0
-1 -32 0
-2 -32 0
-3 -32 0
-4 -32 0
5 -32 0
-6 -32 0
7 -32 0
8 -32 0
-9 -32 0
-10 -32 0
11 -32 0
12 -32 0
32 1 2 3 4 -5 6 -7 -8 9 10 -11 -12  0
-32 13 0
-1 -33 0
-2 -33 0
-3 -33 0
-4 -33 0
5 -33 0
6 -33 0
-7 -33 0
8 -33 0
-9 -33 0
-10 -33 0
11 -33 0
12 -33 0
33 1 2 3 4 -5 -6 7 -8 9 10 -11 -12  0
-33 13 0
-1 -34 0
-2 -34 0
-3 -34 0
-4 -34 0
5 -34 0
-6 -34 0
-7 -34 0
8 -34 0
-9 -34 0
-10 -34 0
11 -34 0
12 -34 0
34 1 2 3 4 -5 6 7 -8 9 10 -11 -12  0
-34 13 0
-1 -35 0
-2 -35 0
-3 -35 0
-4 -35 0
5 -35 0
6 -35 0
-7 -35 0
-8 -35 0
-9 -35 0
-10 -35 0
11 -35 0
12 -35 0
35 1 2 3 4 -5 -6 7 8 9 10 -11 -12  0
-35 13 0
-1 -36 0
-2 -36 0
-3 -36 0
-4 -36 0
5 -36 0
-6 -36 0
-7 -36 0
-8 -36 0
-9 -36 0
-10 -36 0
11 -36 0
12 -36 0
36 1 2 3 4 -5 6 7 8 9 10 -11 -12  0
-36 13 0
-1 -37 0
-2 -37 0
-3 -37 0
-4 -37 0
5 -37 0
-6 -37 0
-7 -37 0
8 -37 0
9 -37 0
-10 -37 0
11 -37 0
-12 -37 0
37 1 2 3 4 -5 6 7 -8 -9 10 -11 12  0
-37 13 0
-1 -38 0
-2 -38 0
-3 -38 0
-4 -38 0
5 -38 0
-6 -38 0
-7 -38 0
-8 -38 0
9 -38 0
-10 -38 0
11 -38 0
-12 -38 0
38 1 2 3 4 -5 6 7 8 -9 10 -11 12  0
-38 13 0
-1 -39 0
-2 -39 0
-3 -39 0
-4 -39 0
5 -39 0
-6 -39 0
7 -39 0
8 -39 0
-9 -39 0
-10 -39 0
11 -39 0
-12 -39 0
39 1 2 3 4 -5 6 -7 -8 9 10 -11 12  0
-39 13 0
-1 -40 0
-2 -40 0
-3 -40 0
-4 -40 0
5 -40 0
-6 -40 0
-7 -40 0
8 -40 0
-9 -40 0
-10 -40 0
11 -40 0
-12 -40 0
40 1 2 3 4 -5 6 7 -8 9 10 -11 12  0
-40 13 0
-1 -41 0
-2 -41 0
-3 -41 0
-4 -41 0
5 -41 0
-6 -41 0
-7 -41 0
-8 -41 0
-9 -41 0
-10 -41 0
11 -41 0
-12 -41 0
41 1 2 3 4 -5 6 7 8 9 10 -11 12  0
-41 13 0
-13 14 15 16 17 18 19 20 21 22 23 24 25 26 27 28 29 30 31 32 33 34 35 36 37 38 39 40 41  0
1 -43 0
-3 -43 0
5 -43 0
8 -43 0
9 -43 0
43 -1 3 -5 -8 -9  0
-43 42 0
-1 -44 0
-2 -44 0
-3 -44 0
-4 -44 0
5 -44 0
6 -44 0
-7 -44 0
8 -44 0
9 -44 0
10 -44 0
-11 -44 0
12 -44 0
44 1 2 3 4 -5 -6 7 -8 -9 -10 11 -12  0
-44 42 0
-1 -45 0
-2 -45 0
-3 -45 0
-4 -45 0
5 -45 0
-6 -45 0
-7 -45 0
8 -45 0
9 -45 0
10 -45 0
-11 -45 0
12 -45 0
45 1 2 3 4 -5 6 7 -8 -9 -10 11 -12  0
-45 42 0
-1 -46 0
-2 -46 0
-3 -46 0
-4 -46 0
5 -46 0
6 -46 0
-7 -46 0
-8 -46 0
9 -46 0
10 -46 0
-11 -46 0
12 -46 0
46 1 2 3 4 -5 -6 7 8 -9 -10 11 -12  0
-46 42 0
-1 -47 0
-2 -47 0
-3 -47 0
-4 -47 0
5 -47 0
-6 -47 0
-7 -47 0
-8 -47 0
9 -47 0
10 -47 0
-11 -47 0
12 -47 0
47 1 2 3 4 -5 6 7 8 -9 -10 11 -12  0
-47 42 0
-1 -48 0
-2 -48 0
-3 -48 0
-4 -48 0
5 -48 0
6 -48 0
7 -48 0
8 -48 0
-9 -48 0
10 -48 0
-11 -48 0
12 -48 0
48 1 2 3 4 -5 -6 -7 -8 9 -10 11 -12  0
-48 42 0
-1 -49 0
-2 -49 0
-3 -49 0
-4 -49 0
5 -49 0
-6 -49 0
7 -49 0
8 -49 0
-9 -49 0
10 -49 0
-11 -49 0
12 -49 0
49 1 2 3 4 -5 6 -7 -8 9 -10 11 -12  0
-49 42 0
-1 -50 0
-2 -50 0
-3 -50 0
-4 -50 0
5 -50 0
6 -50 0
-7 -50 0
8 -50 0
-9 -50 0
10 -50 0
-11 -50 0
12 -50 0
50 1 2 3 4 -5 -6 7 -8 9 -10 11 -12  0
-50 42 0
-1 -51 0
-2 -51 0
-3 -51 0
-4 -51 0
5 -51 0
-6 -51 0
-7 -51 0
8 -51 0
-9 -51 0
10 -51 0
-11 -51 0
12 -51 0
51 1 2 3 4 -5 6 7 -8 9 -10 11 -12  0
-51 42 0
-1 -52 0
-2 -52 0
-3 -52 0
-4 -52 0
5 -52 0
6 -52 0
7 -52 0
-8 -52 0
-9 -52 0
10 -52 0
-11 -52 0
12 -52 0
52 1 2 3 4 -5 -6 -7 8 9 -10 11 -12  0
-52 42 0
-1 -53 0
-2 -53 0
-3 -53 0
-4 -53 0
5 -53 0
6 -53 0
-7 -53 0
-8 -53 0
-9 -53 0
10 -53 0
-11 -53 0
12 -53 0
53 1 2 3 4 -5 -6 7 8 9 -10 11 -12  0
-53 42 0
-1 -54 0
-2 -54 0
-3 -54 0
-4 -54 0
5 -54 0
-6 -54 0
-7 -54 0
-8 -54 0
-9 -54 0
10 -54 0
-11 -54 0
12 -54 0
54 1 2 3 4 -5 6 7 8 9 -10 11 -12  0
-54 42 0
-1 -55 0
-2 -55 0
-3 -55 0
-4 -55 0
5 -55 0
6 -55 0
-7 -55 0
8 -55 0
9 -55 0
-10 -55 0
-11 -55 0
12 -55 0
55 1 2 3 4 -5 -6 7 -8 -9 10 11 -12  0
-55 42 0
-1 -56 0
-2 -56 0
-3 -56 0
-4 -56 0
5 -56 0
-6 -56 0
-7 -56 0
8 -56 0
9 -56 0
-10 -56 0
-11 -56 0
12 -56 0
56 1 2 3 4 -5 6 7 -8 -9 10 11 -12  0
-56 42 0
-1 -57 0
-2 -57 0
-3 -57 0
-4 -57 0
5 -57 0
6 -57 0
-7 -57 0
-8 -57 0
9 -57 0
-10 -57 0
-11 -57 0
12 -57 0
57 1 2 3 4 -5 -6 7 8 -9 10 11 -12  0
-57 42 0
-1 -58 0
-2 -58 0
-3 -58 0
-4 -58 0
5 -58 0
-6 -58 0
-7 -58 0
-8 -58 0
9 -58 0
-10 -58 0
-11 -58 0
12 -58 0
58 1 2 3 4 -5 6 7 8 -9 10 11 -12  0
-58 42 0
-1 -59 0
-2 -59 0
-3 -59 0
-4 -59 0
5 -59 0
6 -59 0
7 -59 0
8 -59 0
-9 -59 0
-10 -59 0
-11 -59 0
12 -59 0
59 1 2 3 4 -5 -6 -7 -8 9 10 11 -12  0
-59 42 0
-1 -60 0
-2 -60 0
-3 -60 0
-4 -60 0
5 -60 0
-6 -60 0
7 -60 0
8 -60 0
-9 -60 0
-10 -60 0
-11 -60 0
12 -60 0
60 1 2 3 4 -5 6 -7 -8 9 10 11 -12  0
-60 42 0
-1 -61 0
-2 -61 0
-3 -61 0
-4 -61 0
5 -61 0
6 -61 0
-7 -61 0
8 -61 0
-9 -61 0
-10 -61 0
-11 -61 0
12 -61 0
61 1 2 3 4 -5 -6 7 -8 9 10 11 -12  0
-61 42 0
-1 -62 0
-2 -62 0
-3 -62 0
-4 -62 0
5 -62 0
-6 -62 0
-7 -62 0
8 -62 0
-9 -62 0
-10 -62 0
-11 -62 0
12 -62 0
62 1 2 3 4 -5 6 7 -8 9 10 11 -12  0
-62 42 0
-1 -63 0
-2 -63 0
-3 -63 0
-4 -63 0
5 -63 0
6 -63 0
-7 -63 0
-8 -63 0
-9 -63 0
-10 -63 0
-11 -63 0
12 -63 0
63 1 2 3 4 -5 -6 7 8 9 10 11 -12  0
-63 42 0
-1 -64 0
-2 -64 0
-3 -64 0
-4 -64 0
5 -64 0
-6 -64 0
-7 -64 0
-8 -64 0
-9 -64 0
-10 -64 0
-11 -64 0
12 -64 0
64 1 2 3 4 -5 6 7 8 9 10 11 -12  0
-64 42 0
-1 -65 0
-2 -65 0
-3 -65 0
-4 -65 0
5 -65 0
-6 -65 0
-7 -65 0
8 -65 0
9 -65 0
-10 -65 0
-11 -65 0
-12 -65 0
65 1 2 3 4 -5 6 7 -8 -9 10 11 12  0
-65 42 0
-1 -66 0
-2 -66 0
-3 -66 0
-4 -66 0
5 -66 0
-6 -66 0
-7 -66 0
-8 -66 0
9 -66 0
-10 -66 0
-11 -66 0
-12 -66 0
66 1 2 3 4 -5 6 7 8 -9 10 11 12  0
-66 42 0
-1 -67 0
-2 -67 0
-3 -67 0
-4 -67 0
5 -67 0
-6 -67 0
7 -67 0
8 -67 0
-9 -67 0
-10 -67 0
-11 -67 0
-12 -67 0
67 1 2 3 4 -5 6 -7 -8 9 10 11 12  0
-67 42 0
-1 -68 0
-2 -68 0
-3 -68 0
-4 -68 0
5 -68 0
-6 -68 0
-7 -68 0
8 -68 0
-9 -68 0
-10 -68 0
-11 -68 0
-12 -68 0
68 1 2 3 4 -5 6 7 -8 9 10 11 12  0
-68 42 0
-1 -69 0
-2 -69 0
-3 -69 0
-4 -69 0
5 -69 0
-6 -69 0
-7 -69 0
-8 -69 0
-9 -69 0
-10 -69 0
-11 -69 0
-12 -69 0
69 1 2 3 4 -5 6 7 8 9 10 11 12  0
-69 42 0
-42 43 44 45 46 47 48 49 50 51 52 53 54 55 56 57 58 59 60 61 62 63 64 65 66 67 68 69  0
1 -71 0
-3 -71 0
5 -71 0
8 -71 0
-9 -71 0
71 -1 3 -5 -8 9  0
-71 70 0
-1 -72 0
-2 -72 0
-3 -72 0
-4 -72 0
5 -72 0
-6 -72 0
7 -72 0
-8 -72 0
-9 -72 0
10 -72 0
11 -72 0
12 -72 0
72 1 2 3 4 -5 6 -7 8 9 -10 -11 -12  0
-72 70 0
-1 -73 0
-2 -73 0
-3 -73 0
-4 -73 0
5 -73 0
6 -73 0
7 -73 0
-8 -73 0
-9 -73 0
-10 -73 0
11 -73 0
12 -73 0
73 1 2 3 4 -5 -6 -7 8 9 10 -11 -12  0
-73 70 0
-1 -74 0
-2 -74 0
-3 -74 0
-4 -74 0
5 -74 0
-6 -74 0
7 -74 0
-8 -74 0
-9 -74 0
10 -74 0
-11 -74 0
12 -74 0
74 1 2 3 4 -5 6 -7 8 9 -10 11 -12  0
-74 70 0
-1 -75 0
-2 -75 0
-3 -75 0
-4 -75 0
5 -75 0
6 -75 0
7 -75 0
-8 -75 0
-9 -75 0
-10 -75 0
-11 -75 0
12 -75 0
75 1 2 3 4 -5 -6 -7 8 9 10 11 -12  0
-75 70 0
-1 -76 0
-2 -76 0
-3 -76 0
-4 -76 0
5 -76 0
6 -76 0
-7 -76 0
8 -76 0
9 -76 0
10 -76 0
11 -76 0
-12 -76 0
76 1 2 3 4 -5 -6 7 -8 -9 -10 -11 12  0
-76 70 0
-1 -77 0
-2 -77 0
-3 -77 0
-4 -77 0
5 -77 0
-6 -77 0
-7 -77 0
8 -77 0
9 -77 0
10 -77 0
11 -77 0
-12 -77 0
77 1 2 3 4 -5 6 7 -8 -9 -10 -11 12  0
-77 70 0
-1 -78 0
-2 -78 0
-3 -78 0
-4 -78 0
5 -78 0
6 -78 0
-7 -78 0
-8 -78 0
9 -78 0
10 -78 0
11 -78 0
-12 -78 0
78 1 2 3 4 -5 -6 7 8 -9 -10 -11 12  0
-78 70 0
-1 -79 0
-2 -79 0
-3 -79 0
-4 -79 0
5 -79 0
-6 -79 0
-7 -79 0
-8 -79 0
9 -79 0
10 -79 0
11 -79 0
-12 -79 0
79 1 2 3 4 -5 6 7 8 -9 -10 -11 12  0
-79 70 0
-1 -80 0
-2 -80 0
-3 -80 0
-4 -80 0
5 -80 0
6 -80 0
7 -80 0
8 -80 0
-9 -80 0
10 -80 0
11 -80 0
-12 -80 0
80 1 2 3 4 -5 -6 -7 -8 9 -10 -11 12  0
-80 70 0
-1 -81 0
-2 -81 0
-3 -81 0
-4 -81 0
5 -81 0
-6 -81 0
7 -81 0
8 -81 0
-9 -81 0
10 -81 0
11 -81 0
-12 -81 0
81 1 2 3 4 -5 6 -7 -8 9 -10 -11 12  0
-81 70 0
-1 -82 0
-2 -82 0
-3 -82 0
-4 -82 0
5 -82 0
6 -82 0
-7 -82 0
8 -82 0
-9 -82 0
10 -82 0
11 -82 0
-12 -82 0
82 1 2 3 4 -5 -6 7 -8 9 -10 -11 12  0
-82 70 0
-1 -83 0
-2 -83 0
-3 -83 0
-4 -83 0
5 -83 0
-6 -83 0
-7 -83 0
8 -83 0
-9 -83 0
10 -83 0
11 -83 0
-12 -83 0
83 1 2 3 4 -5 6 7 -8 9 -10 -11 12  0
-83 70 0
-1 -84 0
-2 -84 0
-3 -84 0
-4 -84 0
5 -84 0
6 -84 0
7 -84 0
-8 -84 0
-9 -84 0
10 -84 0
11 -84 0
-12 -84 0
84 1 2 3 4 -5 -6 -7 8 9 -10 -11 12  0
-84 70 0
-1 -85 0
-2 -85 0
-3 -85 0
-4 -85 0
5 -85 0
-6 -85 0
7 -85 0
-8 -85 0
-9 -85 0
10 -85 0
11 -85 0
-12 -85 0
85 1 2 3 4 -5 6 -7 8 9 -10 -11 12  0
-85 70 0
-1 -86 0
-2 -86 0
-3 -86 0
-4 -86 0
5 -86 0
6 -86 0
-7 -86 0
-8 -86 0
-9 -86 0
10 -86 0
11 -86 0
-12 -86 0
86 1 2 3 4 -5 -6 7 8 9 -10 -11 12  0
-86 70 0
-1 -87 0
-2 -87 0
-3 -87 0
-4 -87 0
5 -87 0
-6 -87 0
-7 -87 0
-8 -87 0
-9 -87 0
10 -87 0
11 -87 0
-12 -87 0
87 1 2 3 4 -5 6 7 8 9 -10 -11 12  0
-87 70 0
-1 -88 0
-2 -88 0
-3 -88 0
-4 -88 0
5 -88 0
6 -88 0
-7 -88 0
8 -88 0
9 -88 0
-10 -88 0
11 -88 0
-12 -88 0
88 1 2 3 4 -5 -6 7 -8 -9 10 -11 12  0
-88 70 0
-1 -89 0
-2 -89 0
-3 -89 0
-4 -89 0
5 -89 0
6 -89 0
-7 -89 0
-8 -89 0
9 -89 0
-10 -89 0
11 -89 0
-12 -89 0
89 1 2 3 4 -5 -6 7 8 -9 10 -11 12  0
-89 70 0
-1 -90 0
-2 -90 0
-3 -90 0
-4 -90 0
5 -90 0
6 -90 0
7 -90 0
8 -90 0
-9 -90 0
-10 -90 0
11 -90 0
-12 -90 0
90 1 2 3 4 -5 -6 -7 -8 9 10 -11 12  0
-90 70 0
-1 -91 0
-2 -91 0
-3 -91 0
-4 -91 0
5 -91 0
6 -91 0
-7 -91 0
8 -91 0
-9 -91 0
-10 -91 0
11 -91 0
-12 -91 0
91 1 2 3 4 -5 -6 7 -8 9 10 -11 12  0
-91 70 0
-1 -92 0
-2 -92 0
-3 -92 0
-4 -92 0
5 -92 0
6 -92 0
7 -92 0
-8 -92 0
-9 -92 0
-10 -92 0
11 -92 0
-12 -92 0
92 1 2 3 4 -5 -6 -7 8 9 10 -11 12  0
-92 70 0
-1 -93 0
-2 -93 0
-3 -93 0
-4 -93 0
5 -93 0
6 -93 0
-7 -93 0
-8 -93 0
-9 -93 0
-10 -93 0
11 -93 0
-12 -93 0
93 1 2 3 4 -5 -6 7 8 9 10 -11 12  0
-93 70 0
-1 -94 0
-2 -94 0
-3 -94 0
-4 -94 0
5 -94 0
6 -94 0
-7 -94 0
8 -94 0
9 -94 0
10 -94 0
-11 -94 0
-12 -94 0
94 1 2 3 4 -5 -6 7 -8 -9 -10 11 12  0
-94 70 0
-1 -95 0
-2 -95 0
-3 -95 0
-4 -95 0
5 -95 0
-6 -95 0
-7 -95 0
8 -95 0
9 -95 0
10 -95 0
-11 -95 0
-12 -95 0
95 1 2 3 4 -5 6 7 -8 -9 -10 11 12  0
-95 70 0
-1 -96 0
-2 -96 0
-3 -96 0
-4 -96 0
5 -96 0
6 -96 0
-7 -96 0
-8 -96 0
9 -96 0
10 -96 0
-11 -96 0
-12 -96 0
96 1 2 3 4 -5 -6 7 8 -9 -10 11 12  0
-96 70 0
-1 -97 0
-2 -97 0
-3 -97 0
-4 -97 0
5 -97 0
-6 -97 0
-7 -97 0
-8 -97 0
9 -97 0
10 -97 0
-11 -97 0
-12 -97 0
97 1 2 3 4 -5 6 7 8 -9 -10 11 12  0
-97 70 0
-1 -98 0
-2 -98 0
-3 -98 0
-4 -98 0
5 -98 0
6 -98 0
7 -98 0
8 -98 0
-9 -98 0
10 -98 0
-11 -98 0
-12 -98 0
98 1 2 3 4 -5 -6 -7 -8 9 -10 11 12  0
-98 70 0
-1 -99 0
-2 -99 0
-3 -99 0
-4 -99 0
5 -99 0
-6 -99 0
7 -99 0
8 -99 0
-9 -99 0
10 -99 0
-11 -99 0
-12 -99 0
99 1 2 3 4 -5 6 -7 -8 9 -10 11 12  0
-99 70 0
-1 -100 0
-2 -100 0
-3 -100 0
-4 -100 0
5 -100 0
6 -100 0
-7 -100 0
8 -100 0
-9 -100 0
10 -100 0
-11 -100 0
-12 -100 0
100 1 2 3 4 -5 -6 7 -8 9 -10 11 12  0
-100 70 0
-1 -101 0
-2 -101 0
-3 -101 0
-4 -101 0
5 -101 0
-6 -101 0
-7 -101 0
8 -101 0
-9 -101 0
10 -101 0
-11 -101 0
-12 -101 0
101 1 2 3 4 -5 6 7 -8 9 -10 11 12  0
-101 70 0
-1 -102 0
-2 -102 0
-3 -102 0
-4 -102 0
5 -102 0
6 -102 0
7 -102 0
-8 -102 0
-9 -102 0
10 -102 0
-11 -102 0
-12 -102 0
102 1 2 3 4 -5 -6 -7 8 9 -10 11 12  0
-102 70 0
-1 -103 0
-2 -103 0
-3 -103 0
-4 -103 0
5 -103 0
-6 -103 0
7 -103 0
-8 -103 0
-9 -103 0
10 -103 0
-11 -103 0
-12 -103 0
103 1 2 3 4 -5 6 -7 8 9 -10 11 12  0
-103 70 0
-1 -104 0
-2 -104 0
-3 -104 0
-4 -104 0
5 -104 0
6 -104 0
-7 -104 0
-8 -104 0
-9 -104 0
10 -104 0
-11 -104 0
-12 -104 0
104 1 2 3 4 -5 -6 7 8 9 -10 11 12  0
-104 70 0
-1 -105 0
-2 -105 0
-3 -105 0
-4 -105 0
5 -105 0
-6 -105 0
-7 -105 0
-8 -105 0
-9 -105 0
10 -105 0
-11 -105 0
-12 -105 0
105 1 2 3 4 -5 6 7 8 9 -10 11 12  0
-105 70 0
-1 -106 0
-2 -106 0
-3 -106 0
-4 -106 0
5 -106 0
6 -106 0
-7 -106 0
8 -106 0
9 -106 0
-10 -106 0
-11 -106 0
-12 -106 0
106 1 2 3 4 -5 -6 7 -8 -9 10 11 12  0
-106 70 0
-1 -107 0
-2 -107 0
-3 -107 0
-4 -107 0
5 -107 0
6 -107 0
-7 -107 0
-8 -107 0
9 -107 0
-10 -107 0
-11 -107 0
-12 -107 0
107 1 2 3 4 -5 -6 7 8 -9 10 11 12  0
-107 70 0
-1 -108 0
-2 -108 0
-3 -108 0
-4 -108 0
5 -108 0
6 -108 0
7 -108 0
8 -108 0
-9 -108 0
-10 -108 0
-11 -108 0
-12 -108 0
108 1 2 3 4 -5 -6 -7 -8 9 10 11 12  0
-108 70 0
-1 -109 0
-2 -109 0
-3 -109 0
-4 -109 0
5 -109 0
6 -109 0
-7 -109 0
8 -109 0
-9 -109 0
-10 -109 0
-11 -109 0
-12 -109 0
109 1 2 3 4 -5 -6 7 -8 9 10 11 12  0
-109 70 0
-1 -110 0
-2 -110 0
-3 -110 0
-4 -110 0
5 -110 0
6 -110 0
7 -110 0
-8 -110 0
-9 -110 0
-10 -110 0
-11 -110 0
-12 -110 0
110 1 2 3 4 -5 -6 -7 8 9 10 11 12  0
-110 70 0
-1 -111 0
-2 -111 0
-3 -111 0
-4 -111 0
5 -111 0
6 -111 0
-7 -111 0
-8 -111 0
-9 -111 0
-10 -111 0
-11 -111 0
-12 -111 0
111 1 2 3 4 -5 -6 7 8 9 10 11 12  0
-111 70 0
-70 71 72 73 74 75 76 77 78 79 80 81 82 83 84 85 86 87 88 89 90 91 92 93 94 95 96 97 98 99 100 101 102 103 104 105 106 107 108 109 110 111  0
1 -113 0
3 -113 0
-5 -113 0
8 -113 0
-9 -113 0
113 -1 -3 5 -8 9  0
-113 112 0
1 -114 0
3 -114 0
-5 -114 0
-8 -114 0
-9 -114 0
114 -1 -3 5 8 9  0
-114 112 0
1 -115 0
-3 -115 0
-5 -115 0
-8 -115 0
-9 -115 0
115 -1 3 5 8 9  0
-115 112 0
-1 -116 0
-2 -116 0
-3 -116 0
-4 -116 0
5 -116 0
6 -116 0
7 -116 0
8 -116 0
9 -116 0
10 -116 0
11 -116 0
12 -116 0
116 1 2 3 4 -5 -6 -7 -8 -9 -10 -11 -12  0
-116 112 0
-1 -117 0
-2 -117 0
-3 -117 0
-4 -117 0
5 -117 0
-6 -117 0
7 -117 0
8 -117 0
9 -117 0
10 -117 0
11 -117 0
12 -117 0
117 1 2 3 4 -5 6 -7 -8 -9 -10 -11 -12  0
-117 112 0
-1 -118 0
-2 -118 0
-3 -118 0
-4 -118 0
5 -118 0
6 -118 0
7 -118 0
-8 -118 0
9 -118 0
10 -118 0
11 -118 0
12 -118 0
118 1 2 3 4 -5 -6 -7 8 -9 -10 -11 -12  0
-118 112 0
-1 -119 0
-2 -119 0
-3 -119 0
-4 -119 0
5 -119 0
-6 -119 0
7 -119 0
-8 -119 0
9 -119 0
10 -119 0
11 -119 0
12 -119 0
119 1 2 3 4 -5 6 -7 8 -9 -10 -11 -12  0
-119 112 0
-1 -120 0
-2 -120 0
-3 -120 0
-4 -120 0
5 -120 0
6 -120 0
7 -120 0
8 -120 0
9 -120 0
-10 -120 0
11 -120 0
12 -120 0
120 1 2 3 4 -5 -6 -7 -8 -9 10 -11 -12  0
-120 112 0
-1 -121 0
-2 -121 0
-3 -121 0
-4 -121 0
5 -121 0
-6 -121 0
7 -121 0
8 -121 0
9 -121 0
-10 -121 0
11 -121 0
12 -121 0
121 1 2 3 4 -5 6 -7 -8 -9 10 -11 -12  0
-121 112 0
-1 -122 0
-2 -122 0
-3 -122 0
-4 -122 0
5 -122 0
6 -122 0
7 -122 0
-8 -122 0
9 -122 0
-10 -122 0
11 -122 0
12 -122 0
122 1 2 3 4 -5 -6 -7 8 -9 10 -11 -12  0
-122 112 0
-1 -123 0
-2 -123 0
-3 -123 0
-4 -123 0
5 -123 0
-6 -123 0
7 -123 0
-8 -123 0
9 -123 0
-10 -123 0
11 -123 0
12 -123 0
123 1 2 3 4 -5 6 -7 8 -9 10 -11 -12  0
-123 112 0
-1 -124 0
-2 -124 0
-3 -124 0
-4 -124 0
5 -124 0
-6 -124 0
7 -124 0
-8 -124 0
-9 -124 0
-10 -124 0
11 -124 0
12 -124 0
124 1 2 3 4 -5 6 -7 8 9 10 -11 -12  0
-124 112 0
-1 -125 0
-2 -125 0
-3 -125 0
-4 -125 0
5 -125 0
6 -125 0
7 -125 0
8 -125 0
9 -125 0
10 -125 0
-11 -125 0
12 -125 0
125 1 2 3 4 -5 -6 -7 -8 -9 -10 11 -12  0
-125 112 0
-1 -126 0
-2 -126 0
-3 -126 0
-4 -126 0
5 -126 0
-6 -126 0
7 -126 0
8 -126 0
9 -126 0
10 -126 0
-11 -126 0
12 -126 0
126 1 2 3 4 -5 6 -7 -8 -9 -10 11 -12  0
-126 112 0
-1 -127 0
-2 -127 0
-3 -127 0
-4 -127 0
5 -127 0
6 -127 0
7 -127 0
-8 -127 0
9 -127 0
10 -127 0
-11 -127 0
12 -127 0
127 1 2 3 4 -5 -6 -7 8 -9 -10 11 -12  0
-127 112 0
-1 -128 0
-2 -128 0
-3 -128 0
-4 -128 0
5 -128 0
-6 -128 0
7 -128 0
-8 -128 0
9 -128 0
10 -128 0
-11 -128 0
12 -128 0
128 1 2 3 4 -5 6 -7 8 -9 -10 11 -12  0
-128 112 0
-1 -129 0
-2 -129 0
-3 -129 0
-4 -129 0
5 -129 0
6 -129 0
7 -129 0
8 -129 0
9 -129 0
-10 -129 0
-11 -129 0
12 -129 0
129 1 2 3 4 -5 -6 -7 -8 -9 10 11 -12  0
-129 112 0
-1 -130 0
-2 -130 0
-3 -130 0
-4 -130 0
5 -130 0
-6 -130 0
7 -130 0
8 -130 0
9 -130 0
-10 -130 0
-11 -130 0
12 -130 0
130 1 2 3 4 -5 6 -7 -8 -9 10 11 -12  0
-130 112 0
-1 -131 0
-2 -131 0
-3 -131 0
-4 -131 0
5 -131 0
6 -131 0
7 -131 0
-8 -131 0
9 -131 0
-10 -131 0
-11 -131 0
12 -131 0
131 1 2 3 4 -5 -6 -7 8 -9 10 11 -12  0
-131 112 0
-1 -132 0
-2 -132 0
-3 -132 0
-4 -132 0
5 -132 0
-6 -132 0
7 -132 0
-8 -132 0
9 -132 0
-10 -132 0
-11 -132 0
12 -132 0
132 1 2 3 4 -5 6 -7 8 -9 10 11 -12  0
-132 112 0
-1 -133 0
-2 -133 0
-3 -133 0
-4 -133 0
5 -133 0
-6 -133 0
7 -133 0
-8 -133 0
-9 -133 0
-10 -133 0
-11 -133 0
12 -133 0
133 1 2 3 4 -5 6 -7 8 9 10 11 -12  0
-133 112 0
-1 -134 0
-2 -134 0
-3 -134 0
-4 -134 0
5 -134 0
6 -134 0
7 -134 0
8 -134 0
9 -134 0
10 -134 0
11 -134 0
-12 -134 0
134 1 2 3 4 -5 -6 -7 -8 -9 -10 -11 12  0
-134 112 0
-1 -135 0
-2 -135 0
-3 -135 0
-4 -135 0
5 -135 0
-6 -135 0
7 -135 0
8 -135 0
9 -135 0
10 -135 0
11 -135 0
-12 -135 0
135 1 2 3 4 -5 6 -7 -8 -9 -10 -11 12  0
-135 112 0
-1 -136 0
-2 -136 0
-3 -136 0
-4 -136 0
5 -136 0
6 -136 0
7 -136 0
-8 -136 0
9 -136 0
10 -136 0
11 -136 0
-12 -136 0
136 1 2 3 4 -5 -6 -7 8 -9 -10 -11 12  0
-136 112 0
-1 -137 0
-2 -137 0
-3 -137 0
-4 -137 0
5 -137 0
-6 -137 0
7 -137 0
-8 -137 0
9 -137 0
10 -137 0
11 -137 0
-12 -137 0
137 1 2 3 4 -5 6 -7 8 -9 -10 -11 12  0
-137 112 0
-1 -138 0
-2 -138 0
-3 -138 0
-4 -138 0
5 -138 0
6 -138 0
7 -138 0
8 -138 0
9 -138 0
-10 -138 0
11 -138 0
-12 -138 0
138 1 2 3 4 -5 -6 -7 -8 -9 10 -11 12  0
-138 112 0
-1 -139 0
-2 -139 0
-3 -139 0
-4 -139 0
5 -139 0
-6 -139 0
7 -139 0
8 -139 0
9 -139 0
-10 -139 0
11 -139 0
-12 -139 0
139 1 2 3 4 -5 6 -7 -8 -9 10 -11 12  0
-139 112 0
-1 -140 0
-2 -140 0
-3 -140 0
-4 -140 0
5 -140 0
6 -140 0
7 -140 0
-8 -140 0
9 -140 0
-10 -140 0
11 -140 0
-12 -140 0
140 1 2 3 4 -5 -6 -7 8 -9 10 -11 12  0
-140 112 0
-1 -141 0
-2 -141 0
-3 -141 0
-4 -141 0
5 -141 0
-6 -141 0
7 -141 0
-8 -141 0
9 -141 0
-10 -141 0
11 -141 0
-12 -141 0
141 1 2 3 4 -5 6 -7 8 -9 10 -11 12  0
-141 112 0
-1 -142 0
-2 -142 0
-3 -142 0
-4 -142 0
5 -142 0
-6 -142 0
7 -142 0
-8 -142 0
-9 -142 0
-10 -142 0
11 -142 0
-12 -142 0
142 1 2 3 4 -5 6 -7 8 9 10 -11 12  0
-142 112 0
-1 -143 0
-2 -143 0
-3 -143 0
-4 -143 0
5 -143 0
6 -143 0
7 -143 0
8 -143 0
9 -143 0
10 -143 0
-11 -143 0
-12 -143 0
143 1 2 3 4 -5 -6 -7 -8 -9 -10 11 12  0
-143 112 0
-1 -144 0
-2 -144 0
-3 -144 0
-4 -144 0
5 -144 0
-6 -144 0
7 -144 0
8 -144 0
9 -144 0
10 -144 0
-11 -144 0
-12 -144 0
144 1 2 3 4 -5 6 -7 -8 -9 -10 11 12  0
-144 112 0
-1 -145 0
-2 -145 0
-3 -145 0
-4 -145 0
5 -145 0
6 -145 0
7 -145 0
-8 -145 0
9 -145 0
10 -145 0
-11 -145 0
-12 -145 0
145 1 2 3 4 -5 -6 -7 8 -9 -10 11 12  0
-145 112 0
-1 -146 0
-2 -146 0
-3 -146 0
-4 -146 0
5 -146 0
-6 -146 0
7 -146 0
-8 -146 0
9 -146 0
10 -146 0
-11 -146 0
-12 -146 0
146 1 2 3 4 -5 6 -7 8 -9 -10 11 12  0
-146 112 0
-1 -147 0
-2 -147 0
-3 -147 0
-4 -147 0
5 -147 0
6 -147 0
7 -147 0
8 -147 0
9 -147 0
-10 -147 0
-11 -147 0
-12 -147 0
147 1 2 3 4 -5 -6 -7 -8 -9 10 11 12  0
-147 112 0
-1 -148 0
-2 -148 0
-3 -148 0
-4 -148 0
5 -148 0
-6 -148 0
7 -148 0
8 -148 0
9 -148 0
-10 -148 0
-11 -148 0
-12 -148 0
148 1 2 3 4 -5 6 -7 -8 -9 10 11 12  0
-148 112 0
-1 -149 0
-2 -149 0
-3 -149 0
-4 -149 0
5 -149 0
6 -149 0
7 -149 0
-8 -149 0
9 -149 0
-10 -149 0
-11 -149 0
-12 -149 0
149 1 2 3 4 -5 -6 -7 8 -9 10 11 12  0
-149 112 0
-1 -150 0
-2 -150 0
-3 -150 0
-4 -150 0
5 -150 0
-6 -150 0
7 -150 0
-8 -150 0
9 -150 0
-10 -150 0
-11 -150 0
-12 -150 0
150 1 2 3 4 -5 6 -7 8 -9 10 11 12  0
-150 112 0
-1 -151 0
-2 -151 0
-3 -151 0
-4 -151 0
5 -151 0
-6 -151 0
7 -151 0
-8 -151 0
-9 -151 0
-10 -151 0
-11 -151 0
-12 -151 0
151 1 2 3 4 -5 6 -7 8 9 10 11 12  0
-151 112 0
-112 113 114 115 116 117 118 119 120 121 122 123 124 125 126 127 128 129 130 131 132 133 134 135 136 137 138 139 140 141 142 143 144 145 146 147 148 149 150 151  0
-1 -153 0
-2 -153 0
-3 -153 0
4 -153 0
153 1 2 3 -4  0
-153 152 0
1 -154 0
3 -154 0
-5 -154 0
8 -154 0
9 -154 0
154 -1 -3 5 -8 -9  0
-154 152 0
1 -155 0
3 -155 0
-5 -155 0
-8 -155 0
9 -155 0
155 -1 -3 5 8 -9  0
-155 152 0
1 -156 0
-3 -156 0
-5 -156 0
-8 -156 0
9 -156 0
156 -1 3 5 8 -9  0
-156 152 0
-152 153 154 155 156  0
-1 -158 0
-2 -158 0
3 -158 0
158 1 2 -3  0
-158 157 0
1 -159 0
-3 -159 0
-5 -159 0
8 -159 0
-9 -159 0
159 -1 3 5 -8 9  0
-159 157 0
-157 158 159  0
-1 -161 0
2 -161 0
161 1 -2  0
-161 160 0
1 -162 0
-3 -162 0
-5 -162 0
8 -162 0
9 -162 0
162 -1 3 5 -8 -9  0
-162 160 0
-160 161 162  0
1 -164 0
3 -164 0
5 -164 0
8 -164 0
9 -164 0
164 -1 -3 -5 -8 -9  0
-164 163 0
1 -165 0
3 -165 0
5 -165 0
-8 -165 0
9 -165 0
165 -1 -3 -5 8 -9  0
-165 163 0
1 -166 0
-3 -166 0
5 -166 0
-8 -166 0
9 -166 0
166 -1 3 -5 8 -9  0
-166 163 0
1 -167 0
3 -167 0
5 -167 0
8 -167 0
-9 -167 0
167 -1 -3 -5 -8 9  0
-167 163 0
1 -168 0
3 -168 0
5 -168 0
-8 -168 0
-9 -168 0
168 -1 -3 -5 8 9  0
-168 163 0
-163 164 165 166 167 168  0
